Optimal - objective value 7.00000000
      0 C0000000               7                       1
      1 C0000001           -17.5                      -0
      2 C0000002               0                      -1
      3 C0000003             3.5                      -0
      4 C0000004             3.5                      -0
      5 C0000005             3.5                      -0
      6 C0000006             3.5                      -0
      7 C0000007             3.5                      -0
      8 C0000008             3.5                      -0
      9 C0000009             3.5                      -0
     10 C0000010             3.5                      -0
     11 C0000011             3.5                      -0
     12 C0000012             3.5                      -0
     13 C0000013             3.5                      -0
     14 C0000014             3.5                      -0
     15 C0000015             3.5                      -0
     16 C0000016             3.5                      -0
     17 C0000017             3.5                      -0
     18 C0000018             3.5                      -0
     19 C0000019             3.5                      -0
     20 C0000020             3.5                      -0
     21 C0000021             3.5                      -0
     22 C0000022             3.5                      -0
     23 C0000023             3.5                      -0
     24 C0000024             3.5                      -0
     25 C0000025             3.5                      -0
     26 C0000026             3.5                      -0
     27 C0000027             3.5                      -0
     28 C0000028             3.5                      -0
     29 C0000029             3.5                      -0
     30 C0000030             3.5                      -0
     31 C0000031             3.5                      -0
     32 C0000032             3.5                      -0
     33 C0000033             3.5                      -0
     34 C0000034             3.5                      -0
     35 C0000035             3.5                      -0
     36 C0000036             3.5                      -0
     37 C0000037             3.5                      -0
     38 C0000038             3.5                      -0
     39 C0000039             3.5                      -0
     40 C0000040             3.5                      -0
     41 C0000041             3.5                      -0
     42 C0000042             3.5                      -0
     43 C0000043             3.5                      -0
     44 C0000044             3.5                      -0
     45 C0000045             3.5                      -0
     46 C0000046             3.5                      -0
     47 C0000047             3.5                      -0
     48 C0000048             3.5                      -0
     49 C0000049             3.5                      -0
     50 C0000050             3.5                      -0
     51 C0000051             3.5                      -0
     52 C0000052             3.5                      -0
     53 C0000053             3.5                      -0
     54 C0000054             3.5                      -0
     55 C0000055             3.5                      -0
     56 C0000056             3.5                      -0
     57 C0000057             3.5                      -0
     58 C0000058             3.5                      -0
     59 C0000059             3.5                      -0
     60 C0000060             3.5                      -0
     61 C0000061             3.5                      -0
     62 C0000062             3.5                      -0
     63 C0000063             3.5                      -0
     64 C0000064             3.5                      -0
     65 C0000065             3.5                      -0
     66 C0000066             3.5                      -0
     67 C0000067             3.5                      -0
     68 C0000068             3.5                      -0
     69 C0000069             3.5                      -0
     70 C0000070             3.5                      -0
     71 C0000071             3.5                      -0
     72 C0000072             3.5                      -0
     73 C0000073             3.5                      -0
     74 C0000074             3.5                      -0
     75 C0000075             3.5                      -0
     76 C0000076             3.5                      -0
     77 C0000077             3.5                      -0
     78 C0000078             3.5                      -0
     79 C0000079             3.5                      -0
     80 C0000080             3.5                      -0
     81 C0000081             3.5                      -0
     82 C0000082             3.5                      -0
     83 C0000083             3.5                      -0
     84 C0000084             3.5                      -0
     85 C0000085             3.5                      -0
     86 C0000086             3.5                      -0
     87 C0000087             3.5                      -0
     88 C0000088             3.5                      -0
     89 C0000089             3.5                      -0
     90 C0000090             3.5                      -0
     91 C0000091             3.5                      -0
     92 C0000092             3.5                      -0
     93 C0000093             3.5                      -0
     94 C0000094             3.5                      -0
     95 C0000095             3.5                      -0
     96 C0000096             3.5                      -0
     97 C0000097             3.5                      -0
     98 C0000098             3.5                      -0
     99 C0000099             3.5                      -0
    100 C0000100             3.5                      -0
    101 C0000101             3.5                      -0
    102 C0000102             3.5                      -0
    103 C0000103             3.5                      -0
    104 C0000104             3.5                      -0
    105 C0000105             3.5                      -0
    106 C0000106             3.5                      -0
    107 C0000107             3.5                      -0
    108 C0000108             3.5                      -0
    109 C0000109             3.5                      -0
    110 C0000110             3.5                      -0
    111 C0000111             3.5                      -0
    112 C0000112             3.5                      -0
    113 C0000113             3.5                      -0
    114 C0000114             3.5                      -0
    115 C0000115             3.5                      -0
    116 C0000116             3.5                      -0
    117 C0000117             3.5                      -0
    118 C0000118             3.5                      -0
    119 C0000119             3.5                      -0
    120 C0000120             3.5                      -0
    121 C0000121             3.5                      -0
    122 C0000122             3.5                      -0
    123 C0000123             3.5                      -0
    124 C0000124             3.5                      -0
    125 C0000125             3.5                      -0
    126 C0000126             3.5                      -0
    127 C0000127             3.5                      -0
    128 C0000128             3.5                      -0
    129 C0000129             3.5                      -0
    130 C0000130             3.5                      -0
    131 C0000131             3.5                      -0
    132 C0000132             3.5                      -0
    133 C0000133             3.5                      -0
    134 C0000134             3.5                      -0
    135 C0000135             3.5                      -0
    136 C0000136             3.5                      -0
    137 C0000137             3.5                      -0
    138 C0000138             3.5                      -0
    139 C0000139             3.5                      -0
    140 C0000140             3.5                      -0
    141 C0000141             3.5                      -0
    142 C0000142             3.5                      -0
    143 C0000143             3.5                      -0
    144 C0000144             3.5                      -0
    145 C0000145             3.5                      -0
    146 C0000146             3.5                      -0
    147 C0000147             3.5                      -0
    148 C0000148             3.5                      -0
    149 C0000149             3.5                      -0
    150 C0000150             3.5                      -0
    151 C0000151             3.5                      -0
    152 C0000152             3.5                      -0
    153 C0000153             3.5                      -0
    154 C0000154             3.5                      -0
    155 C0000155             3.5                      -0
    156 C0000156             3.5                      -0
    157 C0000157             3.5                      -0
    158 C0000158             3.5                      -0
    159 C0000159             3.5                      -0
    160 C0000160             3.5                      -0
    161 C0000161             3.5                      -0
    162 C0000162             3.5                      -0
    163 C0000163             3.5                      -0
    164 C0000164             3.5                      -0
    165 C0000165             3.5                      -0
    166 C0000166             3.5                      -0
    167 C0000167             3.5                      -0
    168 C0000168             3.5                      -0
    169 C0000169             3.5                      -0
    170 C0000170             3.5                      -0
    171 C0000171             3.5                      -0
    172 C0000172             3.5                      -0
    173 C0000173             3.5                      -0
    174 C0000174             3.5                      -0
    175 C0000175             3.5                      -0
    176 C0000176             3.5                      -0
    177 C0000177             3.5                      -0
    178 C0000178             3.5                      -0
    179 C0000179             3.5                      -0
    180 C0000180             3.5                      -0
    181 C0000181             3.5                      -0
    182 C0000182             3.5                      -0
    183 C0000183             3.5                      -0
    184 C0000184             3.5                      -0
    185 C0000185             3.5                      -0
    186 C0000186             3.5                      -0
    187 C0000187             3.5                      -0
    188 C0000188             3.5                      -0
    189 C0000189             3.5                      -0
    190 C0000190             3.5                      -0
    191 C0000191             3.5                      -0
    192 C0000192             3.5                      -0
    193 C0000193             3.5                      -0
    194 C0000194             3.5                      -0
    195 C0000195             3.5                      -0
    196 C0000196             3.5                      -0
    197 C0000197             3.5                      -0
    198 C0000198             3.5                      -0
    199 C0000199             3.5                      -0
    200 C0000200             3.5                      -0
    201 C0000201             3.5                      -0
    202 C0000202             3.5                      -0
    203 C0000203             3.5                      -0
    204 C0000204             3.5                      -0
    205 C0000205             3.5                      -0
    206 C0000206             3.5                      -0
    207 C0000207             3.5                      -0
    208 C0000208             3.5                      -0
    209 C0000209             3.5                      -0
    210 C0000210             3.5                      -0
    211 C0000211             3.5                      -0
    212 C0000212             3.5                      -0
    213 C0000213             3.5                      -0
    214 C0000214             3.5                      -0
    215 C0000215             3.5                      -0
    216 C0000216             3.5                      -0
    217 C0000217             3.5                      -0
    218 C0000218             3.5                      -0
    219 C0000219             3.5                      -0
    220 C0000220             3.5                      -0
    221 C0000221             3.5                      -0
    222 C0000222             3.5                      -0
    223 C0000223             3.5                      -0
    224 C0000224             3.5                      -0
    225 C0000225             3.5                      -0
    226 C0000226             3.5                      -0
    227 C0000227             3.5                      -0
    228 C0000228             3.5                      -0
    229 C0000229             3.5                      -0
    230 C0000230             3.5                      -0
    231 C0000231             3.5                      -0
    232 C0000232             3.5                      -0
    233 C0000233             3.5                      -0
    234 C0000234             3.5                      -0
    235 C0000235             3.5                      -0
    236 C0000236             3.5                      -0
    237 C0000237             3.5                      -0
    238 C0000238             3.5                      -0
    239 C0000239             3.5                      -0
    240 C0000240             3.5                      -0
    241 C0000241             3.5                      -0
    242 C0000242             3.5                      -0
    243 C0000243             3.5                      -0
    244 C0000244             3.5                      -0
    245 C0000245             3.5                      -0
    246 C0000246             3.5                      -0
    247 C0000247             3.5                      -0
    248 C0000248             3.5                      -0
    249 C0000249             3.5                      -0
    250 C0000250             3.5                      -0
    251 C0000251             3.5                      -0
    252 C0000252             3.5                      -0
    253 C0000253             3.5                      -0
    254 C0000254             3.5                      -0
    255 C0000255             3.5                      -0
    256 C0000256             3.5                      -0
    257 C0000257             3.5                      -0
    258 C0000258             3.5                      -0
    259 C0000259             3.5                      -0
    260 C0000260             3.5                      -0
    261 C0000261             3.5                      -0
    262 C0000262             3.5                      -0
    263 C0000263             3.5                      -0
    264 C0000264             3.5                      -0
    265 C0000265             3.5                      -0
    266 C0000266             3.5                      -0
    267 C0000267             3.5                      -0
    268 C0000268             3.5                      -0
    269 C0000269             3.5                      -0
    270 C0000270             3.5                      -0
    271 C0000271             3.5                      -0
    272 C0000272             3.5                      -0
    273 C0000273             3.5                      -0
    274 C0000274             3.5                      -0
    275 C0000275             3.5                      -0
    276 C0000276             3.5                      -0
    277 C0000277             3.5                      -0
    278 C0000278             3.5                      -0
    279 C0000279             3.5                      -0
    280 C0000280             3.5                      -0
    281 C0000281             3.5                      -0
    282 C0000282             3.5                      -0
    283 C0000283             3.5                      -0
    284 C0000284             3.5                      -0
    285 C0000285             3.5                      -0
    286 C0000286             3.5                      -0
    287 C0000287             3.5                      -0
    288 C0000288             3.5                      -0
    289 C0000289             3.5                      -0
    290 C0000290             3.5                      -0
    291 C0000291             3.5                      -0
    292 C0000292             3.5                      -0
    293 C0000293             3.5                      -0
    294 C0000294             3.5                      -0
    295 C0000295             3.5                      -0
    296 C0000296             3.5                      -0
    297 C0000297             3.5                      -0
    298 C0000298             3.5                      -0
    299 C0000299             3.5                      -0
    300 C0000300             3.5                      -0
    301 C0000301             3.5                      -0
    302 C0000302             3.5                      -0
    303 C0000303             3.5                      -0
    304 C0000304             3.5                      -0
    305 C0000305             3.5                      -0
    306 C0000306             3.5                      -0
    307 C0000307             3.5                      -0
    308 C0000308             3.5                      -0
    309 C0000309             3.5                      -0
    310 C0000310             3.5                      -0
    311 C0000311             3.5                      -0
    312 C0000312             3.5                      -0
    313 C0000313             3.5                      -0
    314 C0000314             3.5                      -0
    315 C0000315             3.5                      -0
    316 C0000316             3.5                      -0
    317 C0000317             3.5                      -0
    318 C0000318             3.5                      -0
    319 C0000319             3.5                      -0
    320 C0000320             3.5                      -0
    321 C0000321             3.5                      -0
    322 C0000322             3.5                      -0
    323 C0000323             3.5                      -0
    324 C0000324             3.5                      -0
    325 C0000325             3.5                      -0
    326 C0000326             3.5                      -0
    327 C0000327             3.5                      -0
    328 C0000328             3.5                      -0
    329 C0000329             3.5                      -0
    330 C0000330             3.5                      -0
    331 C0000331             3.5                      -0
    332 C0000332             3.5                      -0
    333 C0000333             3.5                      -0
    334 C0000334             3.5                      -0
    335 C0000335             3.5                      -0
    336 C0000336             3.5                      -0
    337 C0000337             3.5                      -0
    338 C0000338             3.5                      -0
    339 C0000339             3.5                      -0
    340 C0000340             3.5                      -0
    341 C0000341             3.5                      -0
    342 C0000342             3.5                      -0
    343 C0000343             3.5                      -0
    344 C0000344             3.5                      -0
    345 C0000345             3.5                      -0
    346 C0000346             3.5                      -0
    347 C0000347             3.5                      -0
    348 C0000348             3.5                      -0
    349 C0000349             3.5                      -0
    350 C0000350             3.5                      -0
    351 C0000351             3.5                      -0
    352 C0000352             3.5                      -0
    353 C0000353             3.5                      -0
    354 C0000354             3.5                      -0
    355 C0000355             3.5                      -0
    356 C0000356             3.5                      -0
    357 C0000357             3.5                      -0
    358 C0000358             3.5                      -0
    359 C0000359             3.5                      -0
    360 C0000360             3.5                      -0
    361 C0000361             3.5                      -0
    362 C0000362             3.5                      -0
    363 C0000363             3.5                      -0
    364 C0000364             3.5                      -0
    365 C0000365             3.5                      -0
    366 C0000366             3.5                      -0
    367 C0000367             3.5                      -0
    368 C0000368             3.5                      -0
    369 C0000369             3.5                      -0
    370 C0000370             3.5                      -0
    371 C0000371             3.5                      -0
    372 C0000372             3.5                      -0
    373 C0000373             3.5                      -0
    374 C0000374             3.5                      -0
    375 C0000375             3.5                      -0
    376 C0000376             3.5                      -0
    377 C0000377             3.5                      -0
    378 C0000378             3.5                      -0
      0 X0000000               0                       0
      1 X0000001             3.5                       0
